(set-logic QF_BV)
(declare-fun _substvar_119_ () (_ BitVec 31))
(declare-fun _substvar_168_ () Bool)
(declare-fun _substvar_94_ () (_ BitVec 1))
(declare-fun _substvar_149_ () Bool)
(declare-fun _substvar_114_ () (_ BitVec 31))
(declare-fun _substvar_108_ () (_ BitVec 31))
(declare-fun _substvar_76_ () (_ BitVec 31))
(assert (and true true true true true true true true true true true true true true true true true true true true true true true true true true true true true true true true true true true true true true true true true true true true true true true true true true true true true true true true true true true true true true true true true true true true true true true true true true true true true true true true true true true true true true true true true true true true (ite _substvar_149_ (= _substvar_108_ (_ bv0 31)) (= _substvar_108_ (concat (_ bv0 30) _substvar_94_))) (= _substvar_114_ (concat ((_ extract 29 0) _substvar_108_) (bvxor ((_ extract 30 30) _substvar_108_) ((_ extract 27 27) _substvar_108_)))) (ite _substvar_168_ (= _substvar_119_ (_ bv0 31)) (= _substvar_119_ (concat ((_ extract 29 0) _substvar_114_) (_ bv0 1)))) (= _substvar_76_ (concat (_ bv0 30) (bvxor ((_ extract 30 30) _substvar_119_) ((_ extract 27 27) _substvar_119_)))) true true true true true true true true true true true true true true true true true true true true true true true true true true true true true true true true true true true true true true true true true true true true true true true true true true true true true true true true true true true true true true true true true true true true true true true true true true true true true true true true true true true true true true true true true true true true true true true true true true true (= (= _substvar_76_ (_ bv0 31)) false)))
(check-sat)
(exit)
